Version identifier: 12.10.0.0 | 2019-11-26 | 843d4de
CPXPARAM_WorkMem                                 28672
Tried aggregator 2 times.
Aggregator did 20 substitutions.
Reduced MIP has 73 rows, 90 columns, and 333 nonzeros.
Reduced MIP has 90 binaries, 0 generals, 0 SOSs, and 0 indicators.
Presolve time = 0,00 sec. (0,31 ticks)
Found incumbent of value 303,000000 after 0,00 sec. (0,58 ticks)
Probing time = 0,00 sec. (0,10 ticks)
Tried aggregator 1 time.
Detecting symmetries...
MIP Presolve eliminated 6 rows and 0 columns.
MIP Presolve added 12 rows and 0 columns.
Reduced MIP has 79 rows, 90 columns, and 339 nonzeros.
Reduced MIP has 90 binaries, 0 generals, 0 SOSs, and 0 indicators.
Presolve time = 0,00 sec. (0,36 ticks)
Probing time = 0,00 sec. (0,10 ticks)
Clique table members: 223.
MIP emphasis: balance optimality and feasibility.
MIP search method: dynamic search.
Parallel mode: deterministic, using up to 16 threads.
Root relaxation solution time = 0,00 sec. (0,14 ticks)

        Nodes                                         Cuts/
   Node  Left     Objective  IInf  Best Integer    Best Bound    ItCnt     Gap

*     0+    0                          303,0000        0,0000           100,00%
*     0+    0                          216,0000        0,0000           100,00%
      0     0      101,0000    57      216,0000      101,0000       15   53,24%
      0     0      101,0000    57      216,0000      Cuts: 49       33   53,24%
*     0+    0                          210,0000      101,0000            51,90%
      0     0      101,0000    57      210,0000     Cuts: 108       69   51,90%
*     0+    0                          194,0000      101,0000            47,94%
      0     2      101,2390    72      194,0000      119,4679       79   38,42%
Elapsed time = 0,04 sec. (7,75 ticks, tree = 0,02 MB, solutions = 4)

Clique cuts applied:  27
Cover cuts applied:  146
Implied bound cuts applied:  1
Zero-half cuts applied:  3
Gomory fractional cuts applied:  2

Root node processing (before b&c):
  Real time             =    0,04 sec. (7,71 ticks)
Parallel b&c, 16 threads:
  Real time             =    0,04 sec. (13,08 ticks)
  Sync time (average)   =    0,02 sec.
  Wait time (average)   =    0,00 sec.
                          ------------
Total (root+branch&cut) =    0,08 sec. (20,79 ticks)
